NAME : 100C10k.0.6158999.tour
COMMENT : Length = 6158999
COMMENT : Found by GLKH [Keld Helsgaun] Wed Oct  9 22:19:09 2013
TYPE : TOUR
DIMENSION : 100
TOUR_SECTION
199
980
3466
1064
8346
8793
2645
6940
7927
9454
324
999
1438
4011
7888
8836
2891
4909
2757
5224
7312
6016
8535
8489
4305
8925
5147
433
1185
2892
8158
1300
1483
4601
2161
1567
3013
3637
1637
9523
581
6433
718
1581
9931
9895
5181
1669
880
3346
740
5488
5701
1132
9073
9649
5721
8333
6871
6329
8920
4357
5104
9478
1449
4488
5797
571
9444
488
9075
6116
3695
9443
4624
5326
3182
7641
2417
1455
3495
9128
2943
9774
2156
4007
3521
5608
676
5903
6552
8114
1031
6052
7666
7966
3845
9791
1090
2899
-1
EOF
